networks/zoo_98_1881/zoo_98_1881-lower.txt
Number of groups: 73
Flow 39: {4 40 0} {40 41 0} {41 90 0} 
Flow 58: {3 40 0} {40 21 0} {21 22 0} {22 49 0} {49 98 0} 
Flow 68: {14 34 0} 
Flow 148: {6 9 0} {9 10 0} {10 12 0} {12 61 0} 
Flow 178: {5 46 0} {46 45 0} {45 94 0} 
Flow 295: {9 6 0} {6 5 0} {5 23 0} {23 72 0} 
Flow 400: {11 10 0} {10 14 0} 
Flow 408: {7 5 0} {5 1 0} {1 50 0} 
Flow 416: {12 10 0} {10 11 0} {11 60 0} 
Flow 462: {13 15 0} {15 16 0} {16 18 0} 
Flow 470: {13 14 0} {14 26 0} {26 27 0} {27 76 0} 
Flow 512: {14 28 0} 
Flow 519: {14 46 0} {46 36 0} {36 85 0} 
Flow 589: {16 19 0} {19 68 0} 
Flow 622: {34 14 0} {14 5 0} {5 54 0} 
Flow 660: {34 10 0} {10 46 0} {46 95 0} 
Flow 682: {18 19 0} 
Flow 692: {18 16 0} {16 15 0} {15 14 0} {14 44 0} {44 31 0} {31 80 0} 
Flow 696: {17 34 0} {34 35 0} 
Flow 769: {19 15 0} {15 13 0} {13 62 0} 
Flow 771: {20 19 0} {19 16 0} {16 65 0} 
Flow 772: {19 18 0} {18 17 0} {17 66 0} 
Flow 799: {19 34 0} {34 26 0} 
Flow 867: {23 5 0} {5 26 0} 
Flow 886: {1 2 0} {2 51 0} 
Flow 917: {24 10 0} {10 15 0} {15 38 0} 
Flow 942: {25 22 0} {22 24 0} {24 73 0} 
Flow 956: {25 26 0} {26 28 0} {28 48 0} {48 97 0} 
Flow 991: {26 46 0} 
Flow 992: {26 10 0} {10 32 0} {32 37 0} {37 86 0} 
Flow 1009: {26 5 0} {5 6 0} {6 55 0} 
Flow 1027: {27 29 0} {29 78 0} 
Flow 1056: {28 14 0} 
Flow 1067: {28 26 0} {26 25 0} {25 74 0} 
Flow 1077: {28 46 0} 
Flow 1094: {29 28 0} {28 10 0} {10 7 0} {7 8 0} {8 57 0} 
Flow 1098: {29 27 0} {27 26 0} {26 34 0} {34 19 0} 
Flow 1142: {30 42 0} {42 91 0} 
Flow 1182: {31 44 0} {44 26 0} {26 49 0} 
Flow 1286: {35 34 0} {34 17 0} {17 18 0} {18 67 0} 
Flow 1290: {35 10 0} {10 24 0} {24 22 0} {22 71 0} 
Flow 1325: {36 46 0} {46 14 0} {14 63 0} 
Flow 1378: {37 32 0} {32 10 0} {10 28 0} {28 77 0} 
Flow 1383: {10 34 0} {34 83 0} 
Flow 1399: {1 4 0} {4 53 0} 
Flow 1420: {15 10 0} {10 26 0} {26 75 0} 
Flow 1432: {38 39 0} {39 88 0} 
Flow 1440: {38 33 0} {33 48 0} {48 47 0} {47 96 0} 
Flow 1455: {39 32 0} {32 14 0} {14 13 0} 
Flow 1462: {39 38 0} {38 15 0} {15 19 0} {19 20 0} {20 69 0} 
Flow 1479: {8 21 0} {21 40 0} {40 89 0} 
Flow 1485: {32 46 0} {46 47 0} 
Flow 1521: {21 8 0} {8 7 0} {7 10 0} {10 35 0} {35 84 0} 
Flow 1558: {40 42 0} {42 43 0} {43 44 0} {44 28 0} 
Flow 1567: {41 40 0} {40 4 0} {4 1 0} {1 5 0} {5 14 0} {14 32 0} {32 39 0} 
Flow 1625: {14 10 0} {10 9 0} {9 58 0} 
Flow 1631: {44 14 0} {14 15 0} {15 64 0} 
Flow 1659: {44 46 0} 
Flow 1664: {42 40 0} {40 3 0} {3 52 0} 
Flow 1709: {45 46 0} {46 10 0} {10 59 0} 
Flow 1711: {45 44 0} {44 93 0} 
Flow 1736: {46 26 0} 
Flow 1740: {46 28 0} {28 29 0} 
Flow 1741: {46 44 0} {44 43 0} {43 42 0} {42 30 0} {30 79 0} 
Flow 1744: {46 32 0} {32 33 0} {33 82 0} 
Flow 1754: {43 92 0} 
Flow 1773: {47 46 0} {46 5 0} {5 22 0} {22 21 0} {21 70 0} 
Flow 1784: {47 48 0} {48 33 0} {33 38 0} {38 87 0} 
Flow 1822: {33 32 0} {32 81 0} 
Flow 1832: {48 28 0} {28 44 0} 
Flow 1843: {49 22 0} {22 5 0} {5 7 0} {7 56 0} 
Flow 1850: {49 26 0} {26 14 0} 
Flow 1878: {26 44 0} {44 45 0} 
Time taken running everything: 11 seconds
