networks/zoo_98_1881/zoo_98_1881-lower.sol
<?xml version = "1.0" encoding="UTF-8" standalone="yes"?>
<CPLEXSolution version="1.2">
 <header
   problemName="networks/zoo_98_1881/zoo_98_1881-lower.lp"
   solutionName="incumbent"
   solutionIndex="-1"
   objectiveValue="49"
   solutionTypeValue="3"
   solutionTypeString="primal"
   solutionStatusValue="101"
   solutionStatusString="integer optimal solution"
   solutionMethodString="mip"
   primalFeasible="1"
   dualFeasible="1"
   MIPNodes="0"
   MIPIterations="0"
   writeLevel="3"/>
 <quality
   epInt="1.0000000000000001e-05"
   epRHS="9.9999999999999995e-07"
   maxIntInfeas="0"
   maxPrimalInfeas="0"
   maxX="1"
   maxSlack="1"/>
 <variables>
  <variable name="Y(1,2)" index="1" value="1"/>
  <variable name="Y(2,3)" index="100" value="1"/>
  <variable name="Y(3,4)" index="199" value="1"/>
  <variable name="Y(4,5)" index="298" value="1"/>
  <variable name="Y(5,6)" index="397" value="1"/>
  <variable name="Y(6,7)" index="496" value="1"/>
  <variable name="Y(7,8)" index="595" value="1"/>
  <variable name="Y(8,9)" index="694" value="1"/>
  <variable name="Y(9,10)" index="793" value="1"/>
  <variable name="Y(10,11)" index="892" value="1"/>
  <variable name="Y(11,12)" index="991" value="1"/>
  <variable name="Y(12,13)" index="1090" value="1"/>
  <variable name="Y(13,14)" index="1189" value="1"/>
  <variable name="Y(14,15)" index="1288" value="1"/>
  <variable name="Y(15,16)" index="1387" value="1"/>
  <variable name="Y(16,17)" index="1486" value="1"/>
  <variable name="Y(17,18)" index="1585" value="1"/>
  <variable name="Y(18,19)" index="1684" value="1"/>
  <variable name="Y(19,20)" index="1783" value="1"/>
  <variable name="Y(20,21)" index="1882" value="1"/>
  <variable name="Y(21,22)" index="1981" value="1"/>
  <variable name="Y(22,23)" index="2080" value="1"/>
  <variable name="Y(23,24)" index="2179" value="1"/>
  <variable name="Y(24,26)" index="2279" value="1"/>
  <variable name="Y(25,27)" index="2378" value="1"/>
  <variable name="Y(26,28)" index="2477" value="1"/>
  <variable name="Y(27,29)" index="2576" value="1"/>
  <variable name="Y(28,30)" index="2675" value="1"/>
  <variable name="Y(29,31)" index="2774" value="1"/>
  <variable name="Y(30,32)" index="2873" value="1"/>
  <variable name="Y(31,33)" index="2972" value="1"/>
  <variable name="Y(32,34)" index="3071" value="1"/>
  <variable name="Y(33,35)" index="3170" value="1"/>
  <variable name="Y(34,36)" index="3269" value="1"/>
  <variable name="Y(35,37)" index="3368" value="1"/>
  <variable name="Y(36,38)" index="3467" value="1"/>
  <variable name="Y(37,39)" index="3566" value="1"/>
  <variable name="Y(38,40)" index="3665" value="1"/>
  <variable name="Y(39,41)" index="3764" value="1"/>
  <variable name="Y(40,42)" index="3863" value="1"/>
  <variable name="Y(41,43)" index="3962" value="1"/>
  <variable name="Y(42,44)" index="4061" value="1"/>
  <variable name="Y(43,45)" index="4160" value="1"/>
  <variable name="Y(44,46)" index="4259" value="1"/>
  <variable name="Y(45,47)" index="4358" value="1"/>
  <variable name="Y(46,48)" index="4457" value="1"/>
  <variable name="Y(47,49)" index="4556" value="1"/>
  <variable name="Y(59,1)" index="5684" value="1"/>
  <variable name="Y(343,25)" index="33540" value="1"/>
  <variable name="X(1,2,1)" index="184338" value="1"/>
  <variable name="X(1,4,2)" index="186220" value="1"/>
  <variable name="X(1,5,4)" index="188103" value="1"/>
  <variable name="X(1,50,59)" index="190039" value="1"/>
  <variable name="X(2,51,1)" index="191862" value="1"/>
  <variable name="X(3,40,48)" index="193790" value="1"/>
  <variable name="X(3,52,2)" index="195625" value="1"/>
  <variable name="X(4,1,48)" index="197552" value="1"/>
  <variable name="X(4,40,2)" index="199387" value="1"/>
  <variable name="X(4,53,3)" index="201269" value="1"/>
  <variable name="X(5,1,91)" index="203238" value="1"/>
  <variable name="X(5,6,5)" index="205033" value="1"/>
  <variable name="X(5,7,6)" index="206915" value="1"/>
  <variable name="X(5,14,12)" index="208802" value="1"/>
  <variable name="X(5,22,21)" index="210692" value="1"/>
  <variable name="X(5,23,22)" index="212574" value="1"/>
  <variable name="X(5,26,24)" index="214457" value="1"/>
  <variable name="X(5,46,34)" index="216348" value="1"/>
  <variable name="X(5,54,4)" index="218199" value="1"/>
  <variable name="X(6,5,138)" index="220214" value="1"/>
  <variable name="X(6,9,8)" index="221965" value="1"/>
  <variable name="X(6,55,5)" index="223843" value="1"/>
  <variable name="X(7,5,183)" index="225902" value="1"/>
  <variable name="X(7,8,7)" index="227607" value="1"/>
  <variable name="X(7,10,9)" index="229490" value="1"/>
  <variable name="X(7,56,6)" index="231368" value="1"/>
  <variable name="X(8,7,49)" index="233292" value="1"/>
  <variable name="X(8,21,185)" index="235309" value="1"/>
  <variable name="X(8,57,7)" index="237012" value="1"/>
  <variable name="X(9,6,274)" index="239160" value="1"/>
  <variable name="X(9,10,146)" index="240913" value="1"/>
  <variable name="X(9,58,8)" index="242656" value="1"/>
  <variable name="X(10,7,280)" index="244809" value="1"/>
  <variable name="X(10,9,190)" index="246600" value="1"/>
  <variable name="X(10,11,10)" index="248301" value="1"/>
  <variable name="X(10,12,11)" index="250183" value="1"/>
  <variable name="X(10,14,285)" index="252338" value="1"/>
  <variable name="X(10,15,196)" index="254130" value="1"/>
  <variable name="X(10,24,205)" index="256020" value="1"/>
  <variable name="X(10,26,297)" index="257993" value="1"/>
  <variable name="X(10,28,208)" index="259785" value="1"/>
  <variable name="X(10,32,212)" index="261670" value="1"/>
  <variable name="X(10,34,198)" index="263537" value="1"/>
  <variable name="X(10,35,33)" index="265253" value="1"/>
  <variable name="X(10,46,307)" index="267408" value="1"/>
  <variable name="X(10,59,9)" index="268991" value="1"/>
  <variable name="X(11,10,368)" index="271231" value="1"/>
  <variable name="X(11,60,10)" index="272754" value="1"/>
  <variable name="X(12,10,408)" index="275033" value="1"/>
  <variable name="X(12,61,11)" index="276517" value="1"/>
  <variable name="X(13,14,447)" index="278834" value="1"/>
  <variable name="X(13,15,460)" index="280728" value="1"/>
  <variable name="X(13,62,12)" index="282161" value="1"/>
  <variable name="X(14,5,447)" index="284477" value="1"/>
  <variable name="X(14,10,455)" index="286366" value="1"/>
  <variable name="X(14,13,12)" index="287804" value="1"/>
  <variable name="X(14,15,14)" index="289687" value="1"/>
  <variable name="X(14,26,469)" index="292023" value="1"/>
  <variable name="X(14,28,26)" index="293461" value="1"/>
  <variable name="X(14,32,30)" index="295346" value="1"/>
  <variable name="X(14,34,16)" index="297213" value="1"/>
  <variable name="X(14,44,29)" index="299107" value="1"/>
  <variable name="X(14,46,478)" index="301437" value="1"/>
  <variable name="X(14,63,13)" index="302853" value="1"/>
  <variable name="X(15,10,531)" index="305252" value="1"/>
  <variable name="X(15,13,540)" index="307142" value="1"/>
  <variable name="X(15,14,529)" index="309012" value="1"/>
  <variable name="X(15,16,15)" index="310379" value="1"/>
  <variable name="X(15,19,463)" index="312708" value="1"/>
  <variable name="X(15,38,36)" index="314162" value="1"/>
  <variable name="X(15,64,14)" index="316021" value="1"/>
  <variable name="X(16,15,572)" index="318460" value="1"/>
  <variable name="X(16,18,462)" index="320231" value="1"/>
  <variable name="X(16,19,589)" index="322239" value="1"/>
  <variable name="X(16,65,15)" index="323546" value="1"/>
  <variable name="X(17,18,17)" index="325429" value="1"/>
  <variable name="X(17,34,618)" index="327911" value="1"/>
  <variable name="X(17,66,16)" index="329190" value="1"/>
  <variable name="X(18,16,633)" index="331688" value="1"/>
  <variable name="X(18,17,587)" index="333523" value="1"/>
  <variable name="X(18,19,681)" index="335498" value="1"/>
  <variable name="X(18,67,17)" index="336715" value="1"/>
  <variable name="X(19,15,710)" index="339289" value="1"/>
  <variable name="X(19,16,725)" index="341185" value="1"/>
  <variable name="X(19,18,726)" index="343067" value="1"/>
  <variable name="X(19,20,19)" index="344241" value="1"/>
  <variable name="X(19,34,603)" index="346706" value="1"/>
  <variable name="X(19,68,18)" index="348002" value="1"/>
  <variable name="X(20,19,757)" index="350622" value="1"/>
  <variable name="X(20,69,19)" index="351765" value="1"/>
  <variable name="X(21,8,49)" index="353676" value="1"/>
  <variable name="X(21,22,53)" index="355561" value="1"/>
  <variable name="X(21,40,185)" index="357574" value="1"/>
  <variable name="X(21,70,20)" index="359290" value="1"/>
  <variable name="X(22,5,800)" index="361951" value="1"/>
  <variable name="X(22,21,110)" index="363142" value="1"/>
  <variable name="X(22,24,23)" index="364936" value="1"/>
  <variable name="X(22,49,47)" index="366841" value="1"/>
  <variable name="X(22,71,21)" index="368696" value="1"/>
  <variable name="X(23,5,847)" index="371403" value="1"/>
  <variable name="X(23,72,22)" index="372459" value="1"/>
  <variable name="X(24,10,809)" index="375127" value="1"/>
  <variable name="X(24,22,340)" index="376539" value="1"/>
  <variable name="X(24,73,23)" index="378103" value="1"/>
  <variable name="X(25,22,928)" index="380889" value="1"/>
  <variable name="X(25,26,935)" index="382777" value="1"/>
  <variable name="X(25,74,343)" index="384066" value="1"/>
  <variable name="X(26,5,958)" index="386562" value="1"/>
  <variable name="X(26,10,935)" index="388420" value="1"/>
  <variable name="X(26,14,936)" index="390302" value="1"/>
  <variable name="X(26,25,343)" index="391590" value="1"/>
  <variable name="X(26,27,25)" index="393153" value="1"/>
  <variable name="X(26,28,956)" index="395965" value="1"/>
  <variable name="X(26,34,938)" index="397828" value="1"/>
  <variable name="X(26,44,953)" index="399724" value="1"/>
  <variable name="X(26,46,949)" index="401601" value="1"/>
  <variable name="X(26,49,319)" index="402852" value="1"/>
  <variable name="X(26,75,24)" index="404438" value="1"/>
  <variable name="X(27,26,1005)" index="407300" value="1"/>
  <variable name="X(27,29,944)" index="409120" value="1"/>
  <variable name="X(27,76,25)" index="410082" value="1"/>
  <variable name="X(28,10,1048)" index="412986" value="1"/>
  <variable name="X(28,14,1043)" index="414862" value="1"/>
  <variable name="X(28,26,1067)" index="416767" value="1"/>
  <variable name="X(28,29,27)" index="417608" value="1"/>
  <variable name="X(28,44,1045)" index="420507" value="1"/>
  <variable name="X(28,46,1077)" index="422420" value="1"/>
  <variable name="X(28,48,46)" index="423270" value="1"/>
  <variable name="X(28,77,26)" index="425131" value="1"/>
  <variable name="X(29,27,1091)" index="428077" value="1"/>
  <variable name="X(29,28,1093)" index="429960" value="1"/>
  <variable name="X(29,78,27)" index="430775" value="1"/>
  <variable name="X(30,42,1109)" index="433738" value="1"/>
  <variable name="X(30,79,28)" index="434538" value="1"/>
  <variable name="X(31,44,1150)" index="437541" value="1"/>
  <variable name="X(31,80,29)" index="438301" value="1"/>
  <variable name="X(32,10,1185)" index="441338" value="1"/>
  <variable name="X(32,14,1183)" index="443217" value="1"/>
  <variable name="X(32,33,31)" index="443946" value="1"/>
  <variable name="X(32,37,35)" index="445831" value="1"/>
  <variable name="X(32,39,37)" index="447714" value="1"/>
  <variable name="X(32,46,1217)" index="450775" value="1"/>
  <variable name="X(32,81,30)" index="451469" value="1"/>
  <variable name="X(33,32,1231)" index="454551" value="1"/>
  <variable name="X(33,38,1219)" index="456420" value="1"/>
  <variable name="X(33,48,1229)" index="458311" value="1"/>
  <variable name="X(33,82,31)" index="458994" value="1"/>
  <variable name="X(34,10,620)" index="461464" value="1"/>
  <variable name="X(34,14,618)" index="463343" value="1"/>
  <variable name="X(34,17,16)" index="464622" value="1"/>
  <variable name="X(34,19,18)" index="466505" value="1"/>
  <variable name="X(34,26,641)" index="469009" value="1"/>
  <variable name="X(34,35,650)" index="470899" value="1"/>
  <variable name="X(34,83,32)" index="472162" value="1"/>
  <variable name="X(35,10,1269)" index="475280" value="1"/>
  <variable name="X(35,34,1285)" index="477177" value="1"/>
  <variable name="X(35,84,33)" index="477806" value="1"/>
  <variable name="X(36,46,1314)" index="480968" value="1"/>
  <variable name="X(36,85,34)" index="481569" value="1"/>
  <variable name="X(37,32,1354)" index="484770" value="1"/>
  <variable name="X(37,86,35)" index="485332" value="1"/>
  <variable name="X(38,15,1242)" index="488420" value="1"/>
  <variable name="X(38,33,557)" index="489616" value="1"/>
  <variable name="X(38,39,562)" index="491502" value="1"/>
  <variable name="X(38,87,36)" index="492857" value="1"/>
  <variable name="X(39,32,1443)" index="496145" value="1"/>
  <variable name="X(39,38,1457)" index="498040" value="1"/>
  <variable name="X(39,88,37)" index="498501" value="1"/>
  <variable name="X(40,3,2)" index="500347" value="1"/>
  <variable name="X(40,4,48)" index="502274" value="1"/>
  <variable name="X(40,21,20)" index="504127" value="1"/>
  <variable name="X(40,41,39)" index="506027" value="1"/>
  <variable name="X(40,42,28)" index="507897" value="1"/>
  <variable name="X(40,89,38)" index="509788" value="1"/>
  <variable name="X(41,40,1535)" index="513166" value="1"/>
  <variable name="X(41,90,39)" index="513551" value="1"/>
  <variable name="X(42,30,28)" index="515421" value="1"/>
  <variable name="X(42,40,1045)" index="518319" value="1"/>
  <variable name="X(42,43,41)" index="519196" value="1"/>
  <variable name="X(42,91,40)" index="521076" value="1"/>
  <variable name="X(43,42,301)" index="523218" value="1"/>
  <variable name="X(43,44,56)" index="524854" value="1"/>
  <variable name="X(43,92,41)" index="526720" value="1"/>
  <variable name="X(44,14,1117)" index="529677" value="1"/>
  <variable name="X(44,26,1131)" index="531572" value="1"/>
  <variable name="X(44,28,1133)" index="533455" value="1"/>
  <variable name="X(44,31,29)" index="534232" value="1"/>
  <variable name="X(44,43,131)" index="536215" value="1"/>
  <variable name="X(44,45,485)" index="538450" value="1"/>
  <variable name="X(44,46,1139)" index="540985" value="1"/>
  <variable name="X(44,93,42)" index="541769" value="1"/>
  <variable name="X(45,44,1710)" index="545318" value="1"/>
  <variable name="X(45,46,1708)" index="547197" value="1"/>
  <variable name="X(45,94,43)" index="547413" value="1"/>
  <variable name="X(46,5,1314)" index="550565" value="1"/>
  <variable name="X(46,10,1321)" index="552453" value="1"/>
  <variable name="X(46,14,1324)" index="554337" value="1"/>
  <variable name="X(46,26,1335)" index="556229" value="1"/>
  <variable name="X(46,28,1337)" index="558112" value="1"/>
  <variable name="X(46,32,1340)" index="559996" value="1"/>
  <variable name="X(46,36,34)" index="560571" value="1"/>
  <variable name="X(46,44,1339)" index="563757" value="1"/>
  <variable name="X(46,45,43)" index="564342" value="1"/>
  <variable name="X(46,47,45)" index="566225" value="1"/>
  <variable name="X(46,95,44)" index="568105" value="1"/>
  <variable name="X(47,46,1760)" index="571702" value="1"/>
  <variable name="X(47,48,1780)" index="573603" value="1"/>
  <variable name="X(47,96,45)" index="573749" value="1"/>
  <variable name="X(48,28,1253)" index="576838" value="1"/>
  <variable name="X(48,33,1074)" index="578540" value="1"/>
  <variable name="X(48,47,1266)" index="580613" value="1"/>
  <variable name="X(48,97,46)" index="581274" value="1"/>
  <variable name="X(49,22,1837)" index="584946" value="1"/>
  <variable name="X(49,26,1845)" index="586835" value="1"/>
  <variable name="X(49,98,47)" index="586918" value="1"/>
 </variables>
</CPLEXSolution>
